\ENCODING=ISO-8859-1
\Problem name: Max Flow

Maximize
 obj1: _edge0#0 + _edge1#1 + _edge2#2 + _edge3#3 + _edge4#4 + _edge5#5
       + _edge6#6 + _edge7#7 + _edge8#8 + _edge9#9 + _edge10#10 + _edge11#11
       + _edge12#12 + _edge13#13 + _edge14#14
Subject To
 _0#0: _edge0#0 + _edge5#5 + _edge10#10 - _edge15#15 - _edge16#16 - _edge17#17
       - _edge18#18 - _edge19#19 - _edge20#20 - _edge21#21 - _edge22#22
       - _edge23#23 - _edge24#24  = 0
 _1#1: _edge1#1 + _edge6#6 + _edge11#11 - _edge25#25 - _edge26#26 - _edge27#27
       - _edge28#28 - _edge29#29 - _edge30#30 - _edge31#31 - _edge32#32
       - _edge33#33 - _edge34#34  = 0
 _2#2: _edge2#2 + _edge7#7 + _edge12#12 - _edge35#35 - _edge36#36 - _edge37#37
       - _edge38#38 - _edge39#39 - _edge40#40 - _edge41#41 - _edge42#42
       - _edge43#43 - _edge44#44  = 0
 _3#3: _edge3#3 + _edge8#8 + _edge13#13 - _edge45#45 - _edge46#46 - _edge47#47
       - _edge48#48 - _edge49#49 - _edge50#50 - _edge51#51 - _edge52#52
       - _edge53#53 - _edge54#54  = 0
 _4#4: _edge4#4 + _edge9#9 + _edge14#14 - _edge55#55 - _edge56#56 - _edge57#57
       - _edge58#58 - _edge59#59 - _edge60#60 - _edge61#61 - _edge62#62
       - _edge63#63 - _edge64#64  = 0
Bounds
 0 <= _edge0#0 <= 0.490174453087852
 0 <= _edge1#1 <= 0.506793567776035
 0 <= _edge2#2 <= 0.498807849240316
 0 <= _edge3#3 <= 0.543513707415701
 0 <= _edge4#4 <= 0.492516216096414
 0 <= _edge5#5 <= 0.428467555793973
 0 <= _edge6#6 <= 0.509684255700437
 0 <= _edge7#7 <= 0.410811068400452
 0 <= _edge8#8 <= 0.45551674046797
 0 <= _edge9#9 <= 0.430255756929592
 0 <= _edge10#10 <= 3.90137328339572
 0 <= _edge11#11 <= 5.27927357195635
 0 <= _edge12#12 <= 3.48056106644385
 0 <= _edge13#13 <= 17.822135091785
 0 <= _edge14#14 <= 4.05482118238586
 0 <= _edge15#15 <= 16.7663049428844
 0 <= _edge16#16 <= 14.1809776327169
 0 <= _edge17#17 <= 17.848819660355
 0 <= _edge18#18 <= 28.3280784346712
 0 <= _edge19#19 <= 25.2879754276187
 0 <= _edge20#20 <= 7.04813833639556
 0 <= _edge21#21 <= 18.2778422744459
 0 <= _edge22#22 <= 5.44483402990052
 0 <= _edge23#23 <= 28.1663102606504
 0 <= _edge24#24 <= 9.35021231082252
 0 <= _edge25#25 <= 3.20249470611156
 0 <= _edge26#26 <= 3.31803718213711
 0 <= _edge27#27 <= 3.16582042208809
 0 <= _edge28#28 <= 2.79403249280829
 0 <= _edge29#29 <= 2.86691392502604
 0 <= _edge30#30 <= 2.21781376933862
 0 <= _edge31#31 <= 2.65172718608534
 0 <= _edge32#32 <= 5.31237642751649
 0 <= _edge33#33 <= 2.97268171928516
 0 <= _edge34#34 <= 2.17617511660872
 0 <= _edge35#35 <= 6.25181951924777
 0 <= _edge36#36 <= 5.85387555765173
 0 <= _edge37#37 <= 6.39647472504046
 0 <= _edge38#38 <= 8.74857301225318
 0 <= _edge39#39 <= 8.10353882945124
 0 <= _edge40#40 <= 9.38337721578773
 0 <= _edge41#41 <= 10.5155457066251
 0 <= _edge42#42 <= 3.52149469109902
 0 <= _edge43#43 <= 7.36304328153715
 0 <= _edge44#44 <= 13.9587908000848
 0 <= _edge45#45 <= 4.45206522208636
 0 <= _edge46#46 <= 4.88691663966586
 0 <= _edge47#47 <= 4.61938020742602
 0 <= _edge48#48 <= 6.06393809373804
 0 <= _edge49#49 <= 6.22411105843059
 0 <= _edge50#50 <= 4.59591590141327
 0 <= _edge51#51 <= 6.8729019803597
 0 <= _edge52#52 <= 5.43293660940191
 0 <= _edge53#53 <= 4.42116107381274
 0 <= _edge54#54 <= 4.42063504410859
 0 <= _edge55#55 <= 20.0226520813246
 0 <= _edge56#56 <= 16.4427709305405
 0 <= _edge57#57 <= 21.5860973384318
 0 <= _edge58#58 <= 39.0614856893995
 0 <= _edge59#59 <= 33.5070266280378
 0 <= _edge60#60 <= 7.56535878030158
 0 <= _edge61#61 <= 22.2167652208272
 0 <= _edge62#62 <= 5.74843710372321
 0 <= _edge63#63 <= 28.0308903399517
 0 <= _edge64#64 <= 10.2751856158069
End
